p cnf 387 1347
c ind 385 355 382 383 354 369 373 379 380 371 0
c ind 352 357 360 372 381 353 356 359 361 370 0
c ind 349 362 375 378 351 358 363 344 347 350 0
c ind 374 377 343 376 384 346 342 345 348 341 0
c ind 339 340 365 368 367 366 364 330 335 325 0
c ind 329 334 324 331 336 326 332 337 327 333 0
c ind 338 328 1 0
c ret 291 309 310 318 319 317 320 273 272 321 0
c ret 274 275 276 301 288 298 297 300 299 278 0
c ret 277 279 280 281 290 302 303 304 305 306 0
c ret 289 282 283 284 322 286 285 287 293 294 0
c ret 295 292 296 312 313 314 315 316 323 311 0
c ret 268 267 308 269 307 270 271 0
2 3 -8 17 -262 0
-2 8 0
-2 -17 0
-2 -3 0
-2 262 0
3 -4 -322 0
3 -6 -7 -322 0
-3 322 0
-3 4 7 0
-3 4 6 0
4 -5 284 285 286 0
-4 5 0
-4 -286 0
-4 -284 0
-4 -285 0
5 282 283 0
-5 -282 0
-5 -283 0
6 292 293 0
-6 -292 0
-6 -293 0
7 294 295 296 0
-7 -294 0
-7 -296 0
-7 -295 0
8 -9 13 16 0
8 -9 13 15 0
-8 9 0
-8 -13 0
-8 -15 -16 0
9 10 12 0
9 10 297 0
9 10 298 0
-9 -10 0
-9 -12 -297 -298 0
10 -11 -289 -290 -291 0
-10 11 0
-10 289 0
-10 291 0
-10 290 0
11 -287 -288 0
-11 287 0
-11 288 0
12 -299 -300 -301 0
-12 299 0
-12 300 0
-12 301 0
13 -14 -309 -310 -311 0
-13 14 0
-13 309 0
-13 311 0
-13 310 0
14 -307 -308 0
-14 307 0
-14 308 0
15 -317 -318 0
-15 317 0
-15 318 0
16 -319 -320 -321 0
-16 319 0
-16 320 0
-16 321 0
17 -18 -181 -189 385 0
17 -18 181 -189 -385 0
-17 189 0
-17 -181 -385 0
-17 18 0
-17 181 385 0
18 -19 -51 -73 -116 0
-18 116 0
-18 19 0
-18 73 0
-18 51 0
19 -20 -39 -48 382 0
19 -20 -39 48 -382 0
-19 20 0
-19 -48 -382 0
-19 39 0
-19 48 382 0
20 -21 30 -35 0
20 -21 30 -361 0
-20 21 0
-20 -30 0
-20 35 361 0
21 -365 379 0
21 -22 26 0
21 26 -365 0
21 -22 379 0
-21 22 365 0
-21 -26 -379 0
22 -23 272 -322 0
22 -23 302 -322 0
-22 23 0
-22 322 0
-22 -272 -302 0
23 -24 25 306 0
23 -24 25 276 0
-23 24 0
-23 -25 0
-23 -276 -306 0
24 275 304 0
24 274 305 0
24 304 305 0
24 274 275 0
-24 -274 -304 0
-24 -275 -305 0
25 -273 -303 0
-25 273 0
-25 303 0
26 -27 267 -322 0
26 -27 317 -322 0
-26 27 0
-26 322 0
-26 -267 -317 0
27 -28 29 321 0
27 -28 29 271 0
-27 28 0
-27 -29 0
-27 -271 -321 0
28 270 319 0
28 269 320 0
28 319 320 0
28 269 270 0
-28 -269 -319 0
-28 -270 -320 0
29 -268 -318 0
-29 268 0
-29 318 0
30 -31 -375 0
-30 375 0
-30 31 0
31 -32 272 -322 0
31 -32 312 -322 0
-31 32 0
-31 322 0
-31 -272 -312 0
32 -33 34 316 0
32 -33 34 276 0
-32 33 0
-32 -34 0
-32 -276 -316 0
33 275 314 0
33 274 315 0
33 314 315 0
33 274 275 0
-33 -274 -314 0
-33 -275 -315 0
34 -273 -313 0
-34 273 0
-34 313 0
35 -36 297 -322 0
35 -36 -322 324 0
-35 36 0
-35 322 0
-35 -297 -324 0
36 -37 38 328 0
36 -37 38 301 0
-36 37 0
-36 -38 0
-36 -301 -328 0
37 300 326 0
37 299 327 0
37 326 327 0
37 299 300 0
-37 -299 -326 0
-37 -300 -327 0
38 -298 -325 0
-38 298 0
-38 325 0
39 44 -359 0
39 -40 357 0
39 357 -359 0
39 -40 44 0
-39 -44 -357 0
-39 40 359 0
40 -41 267 -322 0
40 -41 297 -322 0
-40 41 0
-40 322 0
-40 -267 -297 0
41 -42 43 301 0
41 -42 43 271 0
-41 42 0
-41 -43 0
-41 -271 -301 0
42 270 299 0
42 269 300 0
42 299 300 0
42 269 270 0
-42 -269 -299 0
-42 -270 -300 0
43 -268 -298 0
-43 268 0
-43 298 0
44 -45 292 -322 0
44 -45 -322 329 0
-44 45 0
-44 322 0
-44 -292 -329 0
45 -46 47 333 0
45 -46 47 296 0
-45 46 0
-45 -47 0
-45 -296 -333 0
46 295 331 0
46 294 332 0
46 331 332 0
46 294 295 0
-46 -294 -331 0
-46 -295 -332 0
47 -293 -330 0
-47 293 0
-47 330 0
48 -49 -50 318 0
48 -49 -50 330 0
-48 50 0
-48 49 0
-48 -318 -330 0
49 321 331 0
49 319 333 0
49 331 333 0
49 319 321 0
-49 -319 -331 0
-49 -321 -333 0
50 320 329 0
50 317 332 0
50 329 332 0
50 317 320 0
-50 -317 -329 0
-50 -320 -332 0
51 -52 -60 -67 -72 0
-51 72 0
-51 52 0
-51 67 0
-51 60 0
52 53 -351 0
52 -56 372 0
52 53 -56 0
52 -351 372 0
-52 -53 -372 0
-52 56 351 0
53 -54 -55 308 0
53 -54 -55 330 0
-53 55 0
-53 54 0
-53 -308 -330 0
54 311 331 0
54 309 333 0
54 331 333 0
54 309 311 0
-54 -309 -331 0
-54 -311 -333 0
55 310 329 0
55 307 332 0
55 329 332 0
55 307 310 0
-55 -307 -329 0
-55 -310 -332 0
56 -57 287 -322 0
56 -57 -322 324 0
-56 57 0
-56 322 0
-56 -287 -324 0
57 -58 59 328 0
57 -58 59 291 0
-57 58 0
-57 -59 0
-57 -291 -328 0
58 290 326 0
58 289 327 0
58 326 327 0
58 289 290 0
-58 -289 -326 0
-58 -290 -327 0
59 -288 -325 0
-59 288 0
-59 325 0
60 61 362 0
60 64 340 0
60 61 64 0
60 340 362 0
-60 -61 -340 0
-60 -64 -362 0
61 -62 -63 273 0
61 -62 -63 278 0
-61 63 0
-61 62 0
-61 -273 -278 0
62 276 279 0
62 274 281 0
62 279 281 0
62 274 276 0
-62 -274 -279 0
-62 -276 -281 0
63 275 277 0
63 272 280 0
63 277 280 0
63 272 275 0
-63 -272 -277 0
-63 -275 -280 0
64 -65 -66 298 0
64 -65 -66 330 0
-64 66 0
-64 65 0
-64 -298 -330 0
65 301 331 0
65 299 333 0
65 331 333 0
65 299 301 0
-65 -299 -331 0
-65 -301 -333 0
66 300 329 0
66 297 332 0
66 329 332 0
66 297 300 0
-66 -297 -329 0
-66 -300 -332 0
35 67 -381 0
67 -68 361 0
67 361 -381 0
35 67 -68 0
-67 68 381 0
-35 -67 -361 0
68 -69 317 -322 0
68 -69 -322 324 0
-68 69 0
-68 322 0
-68 -317 -324 0
69 -70 71 328 0
69 -70 71 321 0
-69 70 0
-69 -71 0
-69 -321 -328 0
70 320 326 0
70 319 327 0
70 326 327 0
70 319 320 0
-70 -319 -326 0
-70 -320 -327 0
71 -318 -325 0
-71 318 0
-71 325 0
-26 72 -372 0
-53 72 -379 0
72 -372 -379 0
-26 -53 72 0
26 -72 379 0
53 -72 372 0
73 -74 -82 -87 -95 0
-73 95 0
-73 74 0
-73 87 0
-73 82 0
74 75 -79 360 -369 0
74 -75 -79 360 369 0
74 -75 79 -360 369 0
74 75 79 -360 -369 0
-74 -79 -360 0
-74 79 360 0
-74 -75 -369 0
-74 75 369 0
75 -76 267 -322 0
75 -76 307 -322 0
-75 76 0
-75 322 0
-75 -267 -307 0
76 -77 78 311 0
76 -77 78 271 0
-76 77 0
-76 -78 0
-76 -271 -311 0
77 270 309 0
77 269 310 0
77 309 310 0
77 269 270 0
-77 -269 -309 0
-77 -270 -310 0
78 -268 -308 0
-78 268 0
-78 308 0
79 -80 -81 273 0
79 -80 -81 298 0
-79 81 0
-79 80 0
-79 -273 -298 0
80 276 299 0
80 274 301 0
80 299 301 0
80 274 276 0
-80 -274 -299 0
-80 -276 -301 0
81 275 297 0
81 272 300 0
81 297 300 0
81 272 275 0
-81 -272 -297 0
-81 -275 -300 0
82 83 -362 0
-64 82 343 0
82 343 -362 0
-64 82 83 0
-82 -83 -343 0
64 -82 362 0
83 -84 277 -322 0
83 -84 -322 334 0
-83 84 0
-83 322 0
-83 -277 -334 0
84 -85 86 338 0
84 -85 86 281 0
-84 85 0
-84 -86 0
-84 -281 -338 0
85 280 336 0
85 279 337 0
85 336 337 0
85 279 280 0
-85 -279 -336 0
-85 -280 -337 0
86 -278 -335 0
-86 278 0
-86 335 0
87 88 -348 0
87 -92 353 0
87 88 -92 0
87 -348 353 0
-87 -88 -353 0
-87 92 348 0
88 -89 287 -322 0
88 -89 -322 334 0
-88 89 0
-88 322 0
-88 -287 -334 0
89 -90 91 338 0
89 -90 91 291 0
-89 90 0
-89 -91 0
-89 -291 -338 0
90 290 336 0
90 289 337 0
90 336 337 0
90 289 290 0
-90 -289 -336 0
-90 -290 -337 0
91 -288 -335 0
-91 288 0
-91 335 0
92 -93 -94 283 0
92 -93 -94 335 0
-92 94 0
-92 93 0
-92 -283 -335 0
93 286 336 0
93 284 338 0
93 336 338 0
93 284 286 0
-93 -284 -336 0
-93 -286 -338 0
94 285 334 0
94 282 337 0
94 334 337 0
94 282 285 0
-94 -282 -334 0
-94 -285 -337 0
95 -96 -100 -104 -111 0
-95 111 0
-95 96 0
-95 104 0
-95 100 0
-44 96 -374 0
96 -97 -357 0
96 -357 -374 0
-44 96 -97 0
-96 97 374 0
44 -96 357 0
97 -98 -99 268 0
97 -98 -99 313 0
-97 99 0
-97 98 0
-97 -268 -313 0
98 271 314 0
98 269 316 0
98 314 316 0
98 269 271 0
-98 -269 -314 0
-98 -271 -316 0
99 270 312 0
99 267 315 0
99 312 315 0
99 267 270 0
-99 -267 -312 0
-99 -270 -315 0
40 100 101 0
100 342 359 0
100 101 359 0
40 100 342 0
-40 -100 -359 0
-100 -101 -342 0
101 -102 -103 278 0
101 -102 -103 330 0
-101 103 0
-101 102 0
-101 -278 -330 0
102 281 331 0
102 279 333 0
102 331 333 0
102 279 281 0
-102 -279 -331 0
-102 -281 -333 0
103 280 329 0
103 277 332 0
103 329 332 0
103 277 280 0
-103 -277 -329 0
-103 -280 -332 0
104 105 -346 0
104 -108 350 0
104 105 -108 0
104 -346 350 0
-104 -105 -350 0
-104 108 346 0
105 -106 -107 273 0
105 -106 -107 288 0
-105 107 0
-105 106 0
-105 -273 -288 0
106 276 289 0
106 274 291 0
106 289 291 0
106 274 276 0
-106 -274 -289 0
-106 -276 -291 0
107 275 287 0
107 272 290 0
107 287 290 0
107 272 275 0
-107 -272 -287 0
-107 -275 -290 0
108 -109 -110 283 0
108 -109 -110 325 0
-108 110 0
-108 109 0
-108 -283 -325 0
109 286 326 0
109 284 328 0
109 326 328 0
109 284 286 0
-109 -284 -326 0
-109 -286 -328 0
110 285 324 0
110 282 327 0
110 324 327 0
110 282 285 0
-110 -282 -324 0
-110 -285 -327 0
111 -342 363 0
-101 111 112 0
111 112 -342 0
-101 111 363 0
101 -111 342 0
-111 -112 -363 0
112 -113 297 -322 0
112 -113 -322 334 0
-112 113 0
-112 322 0
-112 -297 -334 0
113 -114 115 338 0
113 -114 115 301 0
-113 114 0
-113 -115 0
-113 -301 -338 0
114 300 336 0
114 299 337 0
114 336 337 0
114 299 300 0
-114 -299 -336 0
-114 -300 -337 0
115 -298 -335 0
-115 298 0
-115 335 0
116 -117 -137 -163 -173 0
-116 173 0
-116 117 0
-116 163 0
-116 137 0
117 -118 -129 -133 373 0
117 -118 -129 133 -373 0
-117 118 0
-117 -133 -373 0
-117 129 0
-117 133 373 0
118 119 -128 367 0
118 119 124 -128 0
-118 128 0
-118 -119 0
-118 -124 -367 0
119 120 -123 364 365 0
-119 123 0
-119 -120 0
-119 -364 0
-119 -365 0
120 -121 -122 344 346 0
-120 -344 0
-120 122 0
-120 121 0
-120 -346 0
121 343 345 347 348 0
-121 -348 0
-121 -347 0
-121 -343 0
-121 -345 0
122 339 340 341 342 0
-122 -342 0
-122 -341 0
-122 -339 0
-122 -340 0
123 366 367 368 0
-123 -366 0
-123 -368 0
-123 -367 0
124 -125 302 -322 0
124 -125 -322 329 0
-124 125 0
-124 322 0
-124 -302 -329 0
125 -126 127 333 0
125 -126 127 306 0
-125 126 0
-125 -127 0
-125 -306 -333 0
126 305 331 0
126 304 332 0
126 331 332 0
126 304 305 0
-126 -304 -331 0
-126 -305 -332 0
127 -303 -330 0
-127 303 0
-127 330 0
56 128 -350 0
-105 128 351 0
56 -105 128 0
128 -350 351 0
-56 -128 -351 0
105 -128 350 0
22 129 -378 0
129 -130 365 0
129 365 -378 0
22 129 -130 0
-129 130 378 0
-22 -129 -365 0
130 -131 -132 313 0
130 -131 -132 335 0
-130 132 0
-130 131 0
-130 -313 -335 0
131 316 336 0
131 314 338 0
131 336 338 0
131 314 316 0
-131 -314 -336 0
-131 -316 -338 0
132 315 334 0
132 312 337 0
132 334 337 0
132 312 315 0
-132 -312 -334 0
-132 -315 -337 0
133 -134 307 -322 0
133 -134 -322 334 0
-133 134 0
-133 322 0
-133 -307 -334 0
134 -135 136 338 0
134 -135 136 311 0
-134 135 0
-134 -136 0
-134 -311 -338 0
135 310 336 0
135 309 337 0
135 336 337 0
135 309 310 0
-135 -309 -336 0
-135 -310 -337 0
136 -308 -335 0
-136 308 0
-136 335 0
137 -138 -142 -149 -156 0
-137 156 0
-137 138 0
-137 149 0
-137 142 0
97 138 139 0
138 356 374 0
138 139 374 0
97 138 356 0
-97 -138 -374 0
-138 -139 -356 0
139 -140 -141 293 0
139 -140 -141 325 0
-139 141 0
-139 140 0
-139 -293 -325 0
140 296 326 0
140 294 328 0
140 326 328 0
140 294 296 0
-140 -294 -326 0
-140 -296 -328 0
141 295 324 0
141 292 327 0
141 324 327 0
141 292 295 0
-141 -292 -324 0
-141 -295 -327 0
142 143 358 0
142 146 354 0
142 143 146 0
142 354 358 0
-142 -143 -354 0
-142 -146 -358 0
143 -144 -145 268 0
143 -144 -145 293 0
-143 145 0
-143 144 0
-143 -268 -293 0
144 271 294 0
144 269 296 0
144 294 296 0
144 269 271 0
-144 -269 -294 0
-144 -271 -296 0
145 270 292 0
145 267 295 0
145 292 295 0
145 267 270 0
-145 -267 -292 0
-145 -270 -295 0
146 -147 -148 293 0
146 -147 -148 335 0
-146 148 0
-146 147 0
-146 -293 -335 0
147 296 336 0
147 294 338 0
147 336 338 0
147 294 296 0
-147 -294 -336 0
-147 -296 -338 0
148 295 334 0
148 292 337 0
148 334 337 0
148 292 295 0
-148 -292 -334 0
-148 -295 -337 0
149 150 153 0
149 376 380 0
149 153 380 0
149 150 376 0
-149 -150 -380 0
-149 -153 -376 0
150 -151 -152 273 0
150 -151 -152 318 0
-150 152 0
-150 151 0
-150 -273 -318 0
151 276 319 0
151 274 321 0
151 319 321 0
151 274 276 0
-151 -274 -319 0
-151 -276 -321 0
152 275 317 0
152 272 320 0
152 317 320 0
152 272 275 0
-152 -272 -317 0
-152 -275 -320 0
153 -154 -155 313 0
153 -154 -155 325 0
-153 155 0
-153 154 0
-153 -313 -325 0
154 316 326 0
154 314 328 0
154 326 328 0
154 314 316 0
-154 -314 -326 0
-154 -316 -328 0
155 315 324 0
155 312 327 0
155 324 327 0
155 312 315 0
-155 -312 -324 0
-155 -315 -327 0
156 -366 368 0
156 -157 160 0
156 160 -366 0
156 -157 368 0
-156 157 366 0
-156 -160 -368 0
157 -158 -159 303 0
157 -158 -159 325 0
-157 159 0
-157 158 0
-157 -303 -325 0
158 306 326 0
158 304 328 0
158 326 328 0
158 304 306 0
-158 -304 -326 0
-158 -306 -328 0
159 305 324 0
159 302 327 0
159 324 327 0
159 302 305 0
-159 -302 -324 0
-159 -305 -327 0
160 -161 -162 303 0
160 -161 -162 335 0
-160 162 0
-160 161 0
-160 -303 -335 0
161 306 336 0
161 304 338 0
161 336 338 0
161 304 306 0
-161 -304 -336 0
-161 -306 -338 0
162 305 334 0
162 302 337 0
162 334 337 0
162 302 305 0
-162 -302 -334 0
-162 -305 -337 0
163 -164 -169 -172 344 0
163 -164 169 -172 -344 0
-163 172 0
-163 -169 -344 0
-163 164 0
-163 169 344 0
164 -165 -166 352 0
164 -165 166 -352 0
-164 165 0
-164 -166 -352 0
-164 166 352 0
165 -340 346 0
-61 108 165 0
108 165 -340 0
-61 165 346 0
61 -165 340 0
-108 -165 -346 0
166 -167 -168 288 0
166 -167 -168 330 0
-166 168 0
-166 167 0
-166 -288 -330 0
167 291 331 0
167 289 333 0
167 331 333 0
167 289 291 0
-167 -289 -331 0
-167 -291 -333 0
168 290 329 0
168 287 332 0
168 329 332 0
168 287 290 0
-168 -287 -329 0
-168 -290 -332 0
169 -170 -171 268 0
169 -170 -171 283 0
-169 171 0
-169 170 0
-169 -268 -283 0
170 271 284 0
170 269 286 0
170 284 286 0
170 269 271 0
-170 -269 -284 0
-170 -271 -286 0
171 270 282 0
171 267 285 0
171 282 285 0
171 267 270 0
-171 -267 -282 0
-171 -270 -285 0
-139 172 -358 0
-146 172 -356 0
172 -356 -358 0
-139 -146 172 0
146 -172 358 0
139 -172 356 0
173 -174 -175 -179 -180 0
-173 180 0
-173 174 0
-173 179 0
-173 175 0
-31 174 -376 0
-153 174 -375 0
174 -375 -376 0
-31 -153 174 0
153 -174 376 0
31 -174 375 0
130 175 -370 0
175 -176 378 0
130 175 -176 0
175 -370 378 0
-130 -175 -378 0
-175 176 370 0
176 -177 -178 273 0
176 -177 -178 308 0
-176 178 0
-176 177 0
-176 -273 -308 0
177 276 309 0
177 274 311 0
177 309 311 0
177 274 276 0
-177 -274 -309 0
-177 -276 -311 0
178 275 307 0
178 272 310 0
178 307 310 0
178 272 275 0
-178 -272 -307 0
-178 -275 -310 0
68 179 -380 0
-150 179 381 0
68 -150 179 0
179 -380 381 0
-68 -179 -381 0
150 -179 380 0
-88 180 -354 0
-143 180 -353 0
180 -353 -354 0
-88 -143 180 0
143 -180 354 0
88 -180 353 0
3 181 322 0
3 -8 181 -182 0
-3 -181 0
-181 182 -322 0
8 -181 -322 0
182 183 185 187 0
-182 -183 0
-182 -187 0
-182 -185 0
183 -184 314 315 316 0
-183 184 0
-183 -316 0
-183 -314 0
-183 -315 0
184 312 313 0
-184 -312 0
-184 -313 0
185 -186 -279 -280 -281 0
-185 186 0
-185 279 0
-185 281 0
-185 280 0
186 -277 -278 0
-186 277 0
-186 278 0
187 -188 304 305 306 0
-187 188 0
-187 -306 0
-187 -304 0
-187 -305 0
188 302 303 0
-188 -302 0
-188 -303 0
189 -190 -230 -244 -253 0
-189 253 0
-189 190 0
-189 244 0
-189 230 0
190 -191 -217 -222 -223 0
-190 223 0
-190 191 0
-190 222 0
-190 217 0
191 -192 198 -201 -208 0
-191 208 0
-191 192 0
-191 201 0
-191 -198 0
192 -193 196 197 364 0
192 193 196 197 -364 0
-192 -196 0
-192 193 364 0
-192 -197 0
-192 -193 -364 0
193 -194 -195 268 0
193 -194 -195 303 0
-193 195 0
-193 194 0
-193 -268 -303 0
194 271 304 0
194 269 306 0
194 304 306 0
194 269 271 0
-194 -269 -304 0
-194 -271 -306 0
195 270 302 0
195 267 305 0
195 302 305 0
195 267 270 0
-195 -267 -302 0
-195 -270 -305 0
-92 196 -348 0
-196 348 0
92 -196 0
160 197 368 0
-197 -368 0
-160 -197 0
198 -199 -339 0
198 -199 -340 0
198 -199 -384 0
-198 199 0
-198 339 340 384 0
199 -200 376 377 378 0
-199 200 0
-199 -378 0
-199 -376 0
-199 -377 0
200 374 375 0
-200 -374 0
-200 -375 0
201 202 -204 -384 385 0
-201 204 0
-201 -202 0
-201 384 0
-201 -385 0
202 -203 -351 -352 -353 0
-202 203 0
-202 351 0
-202 353 0
-202 352 0
203 -349 -350 0
-203 349 0
-203 350 0
204 205 207 0
204 205 359 0
204 205 360 0
-204 -205 0
-204 -207 -359 -360 0
205 -206 356 357 358 0
-205 206 0
-205 -358 0
-205 -356 0
-205 -357 0
206 354 355 0
-206 -354 0
-206 -355 0
207 -361 -362 -363 0
-207 361 0
-207 362 0
-207 363 0
208 -209 -213 366 0
157 208 -209 -213 0
-208 213 0
-208 209 0
-157 -208 -366 0
209 210 212 0
209 210 369 0
209 210 370 0
-209 -210 0
-209 -212 -369 -370 0
210 -211 -381 -382 -383 0
-210 211 0
-210 381 0
-210 383 0
-210 382 0
211 -379 -380 0
-211 379 0
-211 380 0
212 -371 -372 -373 0
-212 371 0
-212 372 0
-212 373 0
213 215 340 0
213 214 215 0
213 215 339 0
-213 -215 0
-213 -214 -339 -340 0
214 -341 -342 -343 0
-214 341 0
-214 342 0
-214 343 0
215 -216 345 347 348 0
-215 216 0
-215 -348 0
-215 -345 0
-215 -347 0
216 344 346 0
-216 -344 0
-216 -346 0
-124 217 -345 0
217 -218 -367 0
217 -345 -367 0
-124 217 -218 0
124 -217 367 0
-217 218 345 0
218 -219 272 -322 0
218 -219 282 -322 0
-218 219 0
-218 322 0
-218 -272 -282 0
219 -220 221 286 0
219 -220 221 276 0
-219 220 0
-219 -221 0
-219 -276 -286 0
220 275 284 0
220 274 285 0
220 284 285 0
220 274 275 0
-220 -274 -284 0
-220 -275 -285 0
221 -273 -283 0
-221 273 0
-221 283 0
-83 222 -363 0
-112 222 -343 0
222 -343 -363 0
-83 -112 222 0
112 -222 363 0
83 -222 343 0
223 224 -225 229 347 0
223 224 225 229 -347 0
-223 -224 0
-223 -225 -347 0
-223 -229 0
-223 225 347 0
-176 224 -370 0
-224 370 0
176 -224 0
225 -226 282 -322 0
225 -226 -322 329 0
-225 226 0
-225 322 0
-225 -282 -329 0
226 -227 228 333 0
226 -227 228 286 0
-226 227 0
-226 -228 0
-226 -286 -333 0
227 285 331 0
227 284 332 0
227 331 332 0
227 284 285 0
-227 -284 -331 0
-227 -285 -332 0
228 -283 -330 0
-228 283 0
-228 330 0
-218 229 -345 0
-229 345 0
218 -229 0
230 -231 -235 377 0
230 231 -235 -377 0
-230 235 0
-230 231 377 0
-230 -231 -377 0
231 -232 312 -322 0
231 -232 -322 329 0
-231 232 0
-231 322 0
-231 -312 -329 0
232 -233 234 333 0
232 -233 234 316 0
-232 233 0
-232 -234 0
-232 -316 -333 0
233 315 331 0
233 314 332 0
233 331 332 0
233 314 315 0
-233 -314 -331 0
-233 -315 -332 0
234 -313 -330 0
-234 313 0
-234 330 0
235 236 -240 -355 383 0
235 -236 -240 355 383 0
235 -236 240 355 -383 0
235 236 240 -355 -383 0
-235 -236 -355 0
-235 236 355 0
-235 240 383 0
-235 -240 -383 0
236 -237 272 -322 0
236 -237 292 -322 0
-236 237 0
-236 322 0
-236 -272 -292 0
237 -238 239 296 0
237 -238 239 276 0
-237 238 0
-237 -239 0
-237 -276 -296 0
238 275 294 0
238 274 295 0
238 294 295 0
238 274 275 0
-238 -274 -294 0
-238 -275 -295 0
239 -273 -293 0
-239 273 0
-239 293 0
240 -241 317 -322 0
240 -241 -322 334 0
-240 241 0
-240 322 0
-240 -317 -334 0
241 -242 243 338 0
241 -242 243 321 0
-241 242 0
-241 -243 0
-241 -321 -338 0
242 320 336 0
242 319 337 0
242 336 337 0
242 319 320 0
-242 -319 -336 0
-242 -320 -337 0
243 -318 -335 0
-243 318 0
-243 335 0
244 245 -249 -341 349 0
244 -245 -249 341 349 0
244 -245 249 341 -349 0
244 245 249 -341 -349 0
-244 -245 -341 0
-244 245 341 0
-244 249 349 0
-244 -249 -349 0
245 -246 277 -322 0
245 -246 -322 324 0
-245 246 0
-245 322 0
-245 -277 -324 0
246 -247 248 328 0
246 -247 248 281 0
-246 247 0
-246 -248 0
-246 -281 -328 0
247 280 326 0
247 279 327 0
247 326 327 0
247 279 280 0
-247 -279 -326 0
-247 -280 -327 0
248 -278 -325 0
-248 278 0
-248 325 0
249 -250 267 -322 0
249 -250 287 -322 0
-249 250 0
-249 322 0
-249 -267 -287 0
250 -251 252 291 0
250 -251 252 271 0
-250 251 0
-250 -252 0
-250 -271 -291 0
251 270 289 0
251 269 290 0
251 289 290 0
251 269 270 0
-251 -269 -289 0
-251 -270 -290 0
252 -268 -288 0
-252 268 0
-252 288 0
253 254 -258 339 -371 0
253 -254 -258 339 371 0
253 -254 258 -339 371 0
253 254 258 -339 -371 0
-253 -258 -339 0
-253 258 339 0
-253 -254 -371 0
-253 254 371 0
254 -255 307 -322 0
254 -255 -322 324 0
-254 255 0
-254 322 0
-254 -307 -324 0
255 -256 257 328 0
255 -256 257 311 0
-255 256 0
-255 -257 0
-255 -311 -328 0
256 310 326 0
256 309 327 0
256 326 327 0
256 309 310 0
-256 -309 -326 0
-256 -310 -327 0
257 -308 -325 0
-257 308 0
-257 325 0
258 -259 267 -322 0
258 -259 277 -322 0
-258 259 0
-258 322 0
-258 -267 -277 0
259 -260 261 281 0
259 -260 261 271 0
-259 260 0
-259 -261 0
-259 -271 -281 0
260 270 279 0
260 269 280 0
260 279 280 0
260 269 270 0
-260 -269 -279 0
-260 -270 -280 0
261 -268 -278 0
-261 268 0
-261 278 0
187 262 -263 264 0
262 -263 264 -265 0
-262 263 0
-262 -264 0
-187 -262 265 0
-4 185 263 323 0
185 187 263 323 0
-263 -323 0
-185 -263 0
4 -187 -263 0
-183 264 -277 0
-183 264 -278 0
-183 264 -322 0
183 -264 0
-264 277 278 322 0
265 -266 279 280 281 0
-265 266 0
-265 -281 0
-265 -279 0
-265 -280 0
266 277 278 0
-266 -277 0
-266 -278 0
1 2 0
-1 -2 0
386 0

